========================================================== 
File name: C:\DEGR\assets\definitions\MSRCPSP_Gen\200_40_512_5_B.def
Creation date: Wed May 03 10:49:02 CEST 2023
Website: http://imopse.ii.pwr.edu.pl/ 
Reference: 
Myszkowski P. B., Skowronski M. E., Olech L., Oslizlo K., 
Hybrid Ant Colony Optimization in solving Multi-Skill Resource-Constrained Project Scheduling Problem, 
Soft Computing, DOI: DOI 10.1007/s00500-014-1455-x 
========================================================== 
General characteristics: 
Tasks: 200
Resources: 40
Precedence relations: 505
Number of skill types: 5
========================================================== 
ResourceID 	 Salary 	 Skills 
1	 	 	70.8	 	 Q2: 1 	  Q3: 3 	 
2	 	 	71.0	 	 Q3: 0 	  Q4: 3 	  Q0: 0 	 
3	 	 	36.2	 	 Q0: 3 	  Q3: 3 	  Q2: 1 	 
4	 	 	70.5	 	 Q3: 3 	  Q4: 3 	 
5	 	 	73.1	 	 Q0: 0 	  Q2: 0 	  Q4: 1 	 
6	 	 	49.3	 	 Q1: 1 	  Q3: 0 	  Q0: 2 	  Q2: 0 	 
7	 	 	81.5	 	 Q1: 3 	  Q4: 1 	  Q0: 3 	 
8	 	 	59.7	 	 Q1: 1 	  Q3: 3 	 
9	 	 	17.4	 	 Q1: 1 	 
10	 	 	93.6	 	 Q2: 2 	 
11	 	 	11.9	 	 Q1: 1 	 
12	 	 	56.5	 	 Q1: 0 	  Q0: 3 	 
13	 	 	52.2	 	 Q3: 3 	  Q0: 2 	  Q4: 2 	  Q1: 3 	 
14	 	 	52.4	 	 Q2: 3 	  Q3: 1 	  Q4: 1 	 
15	 	 	73.6	 	 Q2: 1 	  Q1: 1 	 
16	 	 	21.6	 	 Q2: 2 	  Q3: 2 	  Q1: 3 	  Q4: 0 	 
17	 	 	78.0	 	 Q1: 0 	  Q0: 2 	  Q4: 3 	 
18	 	 	54.5	 	 Q1: 0 	  Q3: 2 	  Q2: 0 	  Q0: 0 	 
19	 	 	89.8	 	 Q2: 2 	  Q4: 0 	 
20	 	 	44.0	 	 Q4: 0 	 
21	 	 	94.7	 	 Q0: 2 	 
22	 	 	37.2	 	 Q0: 2 	  Q1: 1 	 
23	 	 	25.9	 	 Q0: 3 	  Q2: 0 	 
24	 	 	59.7	 	 Q2: 2 	  Q3: 3 	  Q0: 2 	  Q4: 1 	 
25	 	 	40.3	 	 Q3: 3 	  Q2: 2 	  Q1: 0 	  Q0: 0 	 
26	 	 	47.5	 	 Q3: 2 	  Q4: 3 	  Q0: 1 	 
27	 	 	29.2	 	 Q3: 2 	  Q4: 3 	 
28	 	 	10.8	 	 Q3: 3 	  Q2: 2 	  Q4: 0 	 
29	 	 	23.2	 	 Q2: 2 	  Q1: 2 	  Q0: 0 	 
30	 	 	18.8	 	 Q1: 3 	  Q4: 2 	  Q0: 1 	  Q3: 3 	 
31	 	 	45.0	 	 Q3: 2 	 
32	 	 	28.1	 	 Q4: 2 	  Q3: 3 	  Q0: 0 	  Q2: 0 	 
33	 	 	47.3	 	 Q1: 3 	  Q2: 3 	 
34	 	 	68.2	 	 Q3: 3 	  Q1: 2 	  Q2: 2 	 
35	 	 	95.9	 	 Q2: 1 	 
36	 	 	77.5	 	 Q3: 2 	  Q2: 2 	  Q0: 1 	  Q4: 2 	 
37	 	 	18.0	 	 Q0: 3 	  Q2: 2 	  Q1: 1 	 
38	 	 	74.3	 	 Q2: 3 	  Q3: 2 	  Q0: 0 	 
39	 	 	33.3	 	 Q3: 1 	  Q0: 1 	  Q1: 2 	 
40	 	 	77.4	 	 Q4: 3 	  Q0: 1 	 
========================================================== 
TaskID 	 Duration 	 Skill 	 Predecessor IDs 
1	34	Q4:	3
2	36	Q0:	1
3	20	Q4:	2
4	32	Q1:	0
5	30	Q0:	3
6	23	Q2:	2
7	8	Q4:	0
8	23	Q2:	2
9	29	Q4:	3
10	28	Q3:	3
11	16	Q1:	1
12	9	Q1:	2
13	16	Q0:	2
14	30	Q4:	1
15	31	Q1:	2	14
16	38	Q0:	0	11
17	34	Q3:	1
18	38	Q0:	0	5
19	35	Q0:	1	2
20	15	Q4:	3
21	9	Q1:	2	19
22	32	Q3:	1	6
23	12	Q2:	1	6	9
24	12	Q4:	0
25	38	Q2:	1	20	11
26	9	Q0:	3
27	25	Q0:	2	6
28	34	Q2:	1
29	29	Q3:	0	15
30	38	Q0:	2	1
31	24	Q3:	2	30
32	9	Q3:	1	6
33	23	Q4:	1	30
34	32	Q0:	1	15
35	13	Q1:	3	19
36	15	Q4:	0
37	40	Q2:	0	27
38	14	Q3:	2	37
39	27	Q1:	1
40	38	Q3:	0	5
41	19	Q1:	0	6
42	16	Q2:	2
43	23	Q4:	0	14
44	17	Q1:	2	22
45	37	Q1:	0
46	20	Q4:	0	20
47	10	Q1:	3	40	24
48	17	Q0:	0	8	27
49	37	Q1:	3	43	6	48	40	18
50	26	Q1:	3
51	10	Q3:	2	30	45
52	23	Q3:	1
53	34	Q4:	3	48
54	26	Q3:	1
55	37	Q4:	1	36	20
56	19	Q2:	1	34	18
57	15	Q4:	0
58	19	Q2:	3
59	14	Q2:	0
60	27	Q2:	2	28	2
61	28	Q1:	1	46	54
62	21	Q1:	1	56	58
63	24	Q1:	2	40	10
64	31	Q3:	2	2
65	30	Q0:	3	49
66	29	Q1:	0	9	8
67	10	Q2:	2	1
68	28	Q4:	0	51	30	45
69	37	Q1:	1	2
70	10	Q3:	2	8	29
71	20	Q1:	0	41
72	25	Q0:	3	42	40	35
73	24	Q2:	1	60
74	14	Q4:	3
75	26	Q1:	0
76	31	Q4:	3	49	43
77	29	Q4:	2	29	30
78	23	Q4:	0	2	75	3
79	14	Q3:	3	49	61	4
80	23	Q0:	1	4
81	23	Q3:	0	10	43
82	16	Q3:	2
83	30	Q2:	3	20	31	5
84	38	Q1:	0	46	61	75
85	33	Q2:	2	32	65
86	25	Q1:	1	46	4	43	31
87	28	Q4:	3	9
88	15	Q1:	1	71	57	86	43	52
89	38	Q3:	3	68	61
90	20	Q4:	1	53	50	13	8	6
91	36	Q0:	0	75
92	12	Q4:	3	5	43
93	37	Q2:	3	60
94	28	Q0:	3	62	92
95	28	Q1:	0	46	38
96	38	Q1:	3	64	21	42	76	40	67
97	13	Q4:	1	81	25
98	33	Q2:	3
99	11	Q2:	2	80	5	79	38
100	29	Q3:	0	13	27	64	82	66
101	11	Q3:	2	41	94
102	29	Q3:	3	83	14
103	29	Q1:	3	39	87	59	20
104	32	Q2:	3	84	80	69	92	5
105	19	Q1:	3
106	13	Q3:	1	64	58
107	30	Q3:	0	65
108	20	Q0:	0	25	66	3	31
109	25	Q0:	0	20	100	73	30
110	21	Q0:	3	88
111	17	Q0:	1	40
112	20	Q2:	3	26	82	32	72
113	33	Q0:	3	7	53	16
114	36	Q1:	3	8	14	30	58	44
115	29	Q2:	3	75	28
116	36	Q0:	0	9	21	108
117	15	Q2:	0	66	26
118	9	Q2:	1	111
119	13	Q0:	3	81	98	68
120	17	Q2:	0	44
121	23	Q4:	2	80	66
122	36	Q0:	1	116	21	76	98
123	25	Q0:	2	6
124	30	Q1:	3	121	43	88	11	49	112	66	33
125	34	Q2:	2	105	27	11	67	73
126	28	Q3:	0	89	73
127	36	Q4:	1	110	39	37	88	107
128	27	Q3:	0	121	40	78	80	118	29	9
129	26	Q3:	1	125	51
130	27	Q0:	2	80	30	9	90	56	82	29	38	104
131	38	Q2:	0	9	31
132	18	Q4:	3	124	45
133	12	Q1:	1	74	9
134	36	Q0:	1	76	74	83	110	70	13
135	36	Q3:	3	128	52	123	45	31
136	31	Q2:	2	103	66	8	93
137	33	Q4:	0	29	113
138	16	Q3:	0	120	117	62
139	32	Q4:	1	12	4
140	14	Q0:	3	18	126	4
141	32	Q3:	2	14
142	22	Q2:	1	64	61	43	74	5	123	9
143	39	Q1:	0	9
144	9	Q4:	3	10	117	40
145	33	Q1:	1	124
146	19	Q2:	2	7	67	23	42	85	105
147	32	Q1:	2	139	29	124	92
148	26	Q4:	3	129	76	89	126	113	1
149	29	Q1:	3	43	109	83	7	68
150	39	Q1:	0	90	128	92
151	13	Q0:	3	119	65	115	7
152	40	Q2:	0	150	27	133	35	140
153	30	Q2:	1	145
154	20	Q4:	0	81	94	21	12	86	136	19
155	37	Q2:	1	60	91	84	154	78
156	23	Q3:	2	84	110	1
157	17	Q2:	0	51	1
158	17	Q2:	3	153	20	13
159	37	Q3:	0	1	114	19	50	83	153	129	158	4
160	16	Q0:	1	113	39	105	142
161	35	Q2:	1	123	70	43	49
162	9	Q3:	3	116
163	23	Q3:	0	128	12	109
164	9	Q1:	0	115	29	69
165	15	Q3:	1	52	62	39	43
166	11	Q1:	0	17	133	90	94
167	16	Q0:	2	93	135	92	36
168	13	Q0:	3	164	83	56	12	48	106
169	38	Q4:	0	156	19
170	20	Q1:	1	108	26	135	18
171	21	Q1:	2	105	95	167	76	165	39	16	86	112
172	26	Q3:	0	99	113	66	57
173	36	Q4:	1	165	44	129	158	62	81	141
174	17	Q2:	0	106	123
175	40	Q1:	3	131
176	16	Q2:	2	155	175
177	19	Q3:	2	94	160
178	34	Q0:	3	109	89	138	22	116
179	22	Q0:	0	148	37	164	115
180	27	Q3:	0	77
181	34	Q4:	1	95	145	75	173
182	20	Q4:	2	124	144	123
183	11	Q4:	3	175	55	80	28
184	29	Q0:	1	48	6	77	175	49	144	12	23	32
185	21	Q1:	0	34	37	12	41	133	145
186	34	Q4:	0	134	84	178
187	13	Q0:	1	1	153	65	72	6	144	74	160
188	20	Q1:	2	157	120	15	80	68	71	16	21	25	14	70
189	11	Q0:	1	83	183	9	17
190	16	Q1:	2	155	17	187	164
191	9	Q3:	0	111	149	61	2
192	32	Q3:	2	153
193	36	Q0:	3	165	69
194	22	Q0:	0	79	74	92	126	19	121
195	34	Q3:	2	11	98	102	159
196	39	Q0:	0	41	134
197	20	Q2:	2	78	156	63	132
198	29	Q0:	0	37	110	133	91	160	178	34	14	3
199	31	Q0:	1	112	57	137	132	189	9	123
200	26	Q2:	1	190	105	78	97
========================================================== 